40========================================================================================
s SATISFIABLE
s SATISFIABLE
s SATISFIABLE
s SATISFIABLE
s SATISFIABLE
s SATISFIABLE
s SATISFIABLE
s SATISFIABLE
s SATISFIABLE
s SATISFIABLE
s SATISFIABLE
s SATISFIABLE
s SATISFIABLE
s SATISFIABLE
s SATISFIABLE
s SATISFIABLE
s SATISFIABLE
s SATISFIABLE
s SATISFIABLE
s SATISFIABLE
s SATISFIABLE
s SATISFIABLE
s SATISFIABLE
s SATISFIABLE
s SATISFIABLE
s SATISFIABLE
s SATISFIABLE
s SATISFIABLE
s SATISFIABLE
s SATISFIABLE
s SATISFIABLE
s SATISFIABLE
s SATISFIABLE
s SATISFIABLE
s SATISFIABLE
s SATISFIABLE
s SATISFIABLE
s SATISFIABLE
s SATISFIABLE
s SATISFIABLE
s SATISFIABLE
s SATISFIABLE
s SATISFIABLE
s SATISFIABLE
s SATISFIABLE
s SATISFIABLE
s SATISFIABLE
s SATISFIABLE
s SATISFIABLE
s SATISFIABLE
s SATISFIABLE
s SATISFIABLE
s SATISFIABLE
s SATISFIABLE
s SATISFIABLE
s SATISFIABLE
s SATISFIABLE
s SATISFIABLE
s SATISFIABLE
s SATISFIABLE
s SATISFIABLE
s SATISFIABLE
s SATISFIABLE
s SATISFIABLE
s SATISFIABLE
s SATISFIABLE
s SATISFIABLE
s SATISFIABLE
s SATISFIABLE
s SATISFIABLE
s SATISFIABLE
s SATISFIABLE
s SATISFIABLE
s SATISFIABLE
s SATISFIABLE
s SATISFIABLE
s SATISFIABLE
s SATISFIABLE
s SATISFIABLE
s SATISFIABLE
50========================================================================================
s SATISFIABLE
s SATISFIABLE
s SATISFIABLE
s SATISFIABLE
s SATISFIABLE
s SATISFIABLE
s SATISFIABLE
s SATISFIABLE
s SATISFIABLE
s SATISFIABLE
s SATISFIABLE
s SATISFIABLE
s SATISFIABLE
s SATISFIABLE
s SATISFIABLE
s SATISFIABLE
s SATISFIABLE
s SATISFIABLE
s SATISFIABLE
s SATISFIABLE
s SATISFIABLE
s SATISFIABLE
s SATISFIABLE
s SATISFIABLE
s SATISFIABLE
s SATISFIABLE
s SATISFIABLE
s SATISFIABLE
s SATISFIABLE
s SATISFIABLE
s SATISFIABLE
s SATISFIABLE
s SATISFIABLE
s SATISFIABLE
s SATISFIABLE
s SATISFIABLE
s SATISFIABLE
s SATISFIABLE
s SATISFIABLE
s SATISFIABLE
s SATISFIABLE
s SATISFIABLE
s SATISFIABLE
s SATISFIABLE
s SATISFIABLE
s SATISFIABLE
s SATISFIABLE
s SATISFIABLE
s SATISFIABLE
s SATISFIABLE
s SATISFIABLE
s SATISFIABLE
s SATISFIABLE
s SATISFIABLE
s SATISFIABLE
s SATISFIABLE
s SATISFIABLE
s SATISFIABLE
s SATISFIABLE
s SATISFIABLE
s SATISFIABLE
s SATISFIABLE
s SATISFIABLE
s SATISFIABLE
s SATISFIABLE
s SATISFIABLE
s SATISFIABLE
s SATISFIABLE
s SATISFIABLE
s SATISFIABLE
s SATISFIABLE
s SATISFIABLE
s SATISFIABLE
s SATISFIABLE
s SATISFIABLE
s SATISFIABLE
s SATISFIABLE
s SATISFIABLE
s SATISFIABLE
s SATISFIABLE
60========================================================================================
s SATISFIABLE
s SATISFIABLE
s SATISFIABLE
s SATISFIABLE
s SATISFIABLE
s SATISFIABLE
s SATISFIABLE
s SATISFIABLE
s SATISFIABLE
s SATISFIABLE
s SATISFIABLE
s SATISFIABLE
s SATISFIABLE
s SATISFIABLE
s SATISFIABLE
s SATISFIABLE
s SATISFIABLE
s SATISFIABLE
s SATISFIABLE
s SATISFIABLE
s SATISFIABLE
s SATISFIABLE
s SATISFIABLE
s SATISFIABLE
s SATISFIABLE
s SATISFIABLE
s SATISFIABLE
s SATISFIABLE
s SATISFIABLE
s SATISFIABLE
s SATISFIABLE
s SATISFIABLE
s SATISFIABLE
s SATISFIABLE
s SATISFIABLE
s SATISFIABLE
s SATISFIABLE
s SATISFIABLE
s SATISFIABLE
s SATISFIABLE
s SATISFIABLE
s SATISFIABLE
s SATISFIABLE
s SATISFIABLE
s SATISFIABLE
s SATISFIABLE
s SATISFIABLE
s SATISFIABLE
s SATISFIABLE
s SATISFIABLE
s SATISFIABLE
s SATISFIABLE
s SATISFIABLE
s SATISFIABLE
s SATISFIABLE
s SATISFIABLE
s SATISFIABLE
s SATISFIABLE
s SATISFIABLE
s SATISFIABLE
s SATISFIABLE
s SATISFIABLE
s SATISFIABLE
s SATISFIABLE
s SATISFIABLE
s SATISFIABLE
s SATISFIABLE
s SATISFIABLE
s SATISFIABLE
s SATISFIABLE
s SATISFIABLE
s SATISFIABLE
s SATISFIABLE
s SATISFIABLE
s SATISFIABLE
s SATISFIABLE
s SATISFIABLE
s SATISFIABLE
s SATISFIABLE
s SATISFIABLE
70========================================================================================
s SATISFIABLE
s SATISFIABLE
s SATISFIABLE
s SATISFIABLE
s SATISFIABLE
s SATISFIABLE
s SATISFIABLE
s SATISFIABLE
s SATISFIABLE
s SATISFIABLE
s SATISFIABLE
s SATISFIABLE
s SATISFIABLE
s SATISFIABLE
s SATISFIABLE
s SATISFIABLE
s SATISFIABLE
s SATISFIABLE
s SATISFIABLE
s SATISFIABLE
s SATISFIABLE
s SATISFIABLE
s SATISFIABLE
s SATISFIABLE
s SATISFIABLE
s SATISFIABLE
s SATISFIABLE
s SATISFIABLE
s SATISFIABLE
s SATISFIABLE
s SATISFIABLE
s SATISFIABLE
s SATISFIABLE
s SATISFIABLE
s SATISFIABLE
s SATISFIABLE
s SATISFIABLE
s SATISFIABLE
s SATISFIABLE
s SATISFIABLE
s SATISFIABLE
s SATISFIABLE
s SATISFIABLE
s SATISFIABLE
s SATISFIABLE
s SATISFIABLE
s SATISFIABLE
s SATISFIABLE
s SATISFIABLE
s SATISFIABLE
s SATISFIABLE
s SATISFIABLE
s SATISFIABLE
s SATISFIABLE
s SATISFIABLE
s SATISFIABLE
s SATISFIABLE
s SATISFIABLE
s SATISFIABLE
s SATISFIABLE
s SATISFIABLE
s SATISFIABLE
s SATISFIABLE
s SATISFIABLE
s SATISFIABLE
s SATISFIABLE
s SATISFIABLE
s SATISFIABLE
s SATISFIABLE
s SATISFIABLE
s SATISFIABLE
s SATISFIABLE
s SATISFIABLE
s SATISFIABLE
s SATISFIABLE
s SATISFIABLE
s SATISFIABLE
s SATISFIABLE
s SATISFIABLE
s SATISFIABLE
80========================================================================================
s SATISFIABLE
s SATISFIABLE
s SATISFIABLE
s SATISFIABLE
s SATISFIABLE
s SATISFIABLE
s SATISFIABLE
s SATISFIABLE
s SATISFIABLE
s SATISFIABLE
s SATISFIABLE
s SATISFIABLE
s SATISFIABLE
s SATISFIABLE
s SATISFIABLE
s SATISFIABLE
s SATISFIABLE
s SATISFIABLE
s SATISFIABLE
s SATISFIABLE
s SATISFIABLE
s SATISFIABLE
s SATISFIABLE
s SATISFIABLE
s SATISFIABLE
s SATISFIABLE
s SATISFIABLE
s SATISFIABLE
s SATISFIABLE
s SATISFIABLE
s SATISFIABLE
s SATISFIABLE
s SATISFIABLE
s SATISFIABLE
s SATISFIABLE
s SATISFIABLE
s SATISFIABLE
s SATISFIABLE
s SATISFIABLE
s SATISFIABLE
s SATISFIABLE
s SATISFIABLE
s SATISFIABLE
s SATISFIABLE
s SATISFIABLE
s SATISFIABLE
s SATISFIABLE
s SATISFIABLE
s SATISFIABLE
s SATISFIABLE
s SATISFIABLE
s SATISFIABLE
s SATISFIABLE
s SATISFIABLE
s SATISFIABLE
s SATISFIABLE
s SATISFIABLE
s SATISFIABLE
s SATISFIABLE
s SATISFIABLE
s SATISFIABLE
s SATISFIABLE
s SATISFIABLE
s SATISFIABLE
s SATISFIABLE
s SATISFIABLE
s SATISFIABLE
s SATISFIABLE
s SATISFIABLE
s SATISFIABLE
s SATISFIABLE
s SATISFIABLE
s SATISFIABLE
s SATISFIABLE
s SATISFIABLE
s SATISFIABLE
s SATISFIABLE
s SATISFIABLE
s SATISFIABLE
s SATISFIABLE
90========================================================================================
s SATISFIABLE
s SATISFIABLE
s SATISFIABLE
s SATISFIABLE
s SATISFIABLE
s SATISFIABLE
s SATISFIABLE
s SATISFIABLE
s SATISFIABLE
s SATISFIABLE
s SATISFIABLE
s SATISFIABLE
s SATISFIABLE
s SATISFIABLE
s SATISFIABLE
s SATISFIABLE
s SATISFIABLE
s SATISFIABLE
s SATISFIABLE
s SATISFIABLE
s SATISFIABLE
s SATISFIABLE
s SATISFIABLE
s SATISFIABLE
s SATISFIABLE
s SATISFIABLE
s SATISFIABLE
s SATISFIABLE
s SATISFIABLE
s SATISFIABLE
s SATISFIABLE
s SATISFIABLE
s SATISFIABLE
s SATISFIABLE
s SATISFIABLE
s SATISFIABLE
s SATISFIABLE
s SATISFIABLE
s SATISFIABLE
s SATISFIABLE
s SATISFIABLE
s SATISFIABLE
s SATISFIABLE
s SATISFIABLE
s SATISFIABLE
s SATISFIABLE
s SATISFIABLE
s SATISFIABLE
s SATISFIABLE
s SATISFIABLE
s SATISFIABLE
s SATISFIABLE
s SATISFIABLE
s SATISFIABLE
s SATISFIABLE
s SATISFIABLE
s SATISFIABLE
s SATISFIABLE
s SATISFIABLE
s SATISFIABLE
s SATISFIABLE
s SATISFIABLE
s SATISFIABLE
s SATISFIABLE
s SATISFIABLE
s SATISFIABLE
s SATISFIABLE
s SATISFIABLE
s SATISFIABLE
s SATISFIABLE
s SATISFIABLE
s SATISFIABLE
s SATISFIABLE
s SATISFIABLE
s SATISFIABLE
s SATISFIABLE
s SATISFIABLE
s SATISFIABLE
s SATISFIABLE
s SATISFIABLE
100========================================================================================
s SATISFIABLE
s SATISFIABLE
s SATISFIABLE
s SATISFIABLE
s SATISFIABLE
s SATISFIABLE
s SATISFIABLE
s SATISFIABLE
s SATISFIABLE
s SATISFIABLE
s SATISFIABLE
s SATISFIABLE
s SATISFIABLE
s SATISFIABLE
s SATISFIABLE
s SATISFIABLE
s SATISFIABLE
s SATISFIABLE
s SATISFIABLE
s SATISFIABLE
s SATISFIABLE
s SATISFIABLE
s SATISFIABLE
s SATISFIABLE
s SATISFIABLE
s SATISFIABLE
s SATISFIABLE
s SATISFIABLE
s SATISFIABLE
s SATISFIABLE
s SATISFIABLE
s SATISFIABLE
s SATISFIABLE
s SATISFIABLE
s SATISFIABLE
s SATISFIABLE
s SATISFIABLE
s SATISFIABLE
s SATISFIABLE
s SATISFIABLE
s SATISFIABLE
s SATISFIABLE
s SATISFIABLE
s SATISFIABLE
s SATISFIABLE
s SATISFIABLE
s SATISFIABLE
s SATISFIABLE
s SATISFIABLE
s SATISFIABLE
s SATISFIABLE
s SATISFIABLE
s SATISFIABLE
s SATISFIABLE
s SATISFIABLE
s SATISFIABLE
s SATISFIABLE
s SATISFIABLE
s SATISFIABLE
s SATISFIABLE
s SATISFIABLE
s SATISFIABLE
s SATISFIABLE
s SATISFIABLE
s SATISFIABLE
s SATISFIABLE
s SATISFIABLE
s SATISFIABLE
s SATISFIABLE
s SATISFIABLE
s SATISFIABLE
s SATISFIABLE
s SATISFIABLE
s SATISFIABLE
s SATISFIABLE
s SATISFIABLE
s SATISFIABLE
s SATISFIABLE
s SATISFIABLE
s SATISFIABLE
110========================================================================================
s SATISFIABLE
s SATISFIABLE
s SATISFIABLE
s SATISFIABLE
s SATISFIABLE
s SATISFIABLE
s SATISFIABLE
s SATISFIABLE
s SATISFIABLE
s SATISFIABLE
s SATISFIABLE
s SATISFIABLE
s SATISFIABLE
s SATISFIABLE
s SATISFIABLE
s SATISFIABLE
s SATISFIABLE
s SATISFIABLE
s SATISFIABLE
s SATISFIABLE
s SATISFIABLE
s SATISFIABLE
s SATISFIABLE
s SATISFIABLE
s SATISFIABLE
s SATISFIABLE
s SATISFIABLE
s SATISFIABLE
s SATISFIABLE
s SATISFIABLE
s SATISFIABLE
s SATISFIABLE
s SATISFIABLE
s SATISFIABLE
s SATISFIABLE
s SATISFIABLE
s SATISFIABLE
s SATISFIABLE
s SATISFIABLE
s SATISFIABLE
s SATISFIABLE
s SATISFIABLE
s SATISFIABLE
s SATISFIABLE
s SATISFIABLE
s SATISFIABLE
s SATISFIABLE
s SATISFIABLE
s SATISFIABLE
s SATISFIABLE
s SATISFIABLE
s SATISFIABLE
s SATISFIABLE
s SATISFIABLE
s SATISFIABLE
s SATISFIABLE
s SATISFIABLE
s SATISFIABLE
s SATISFIABLE
s SATISFIABLE
s SATISFIABLE
s UNSATISFIABLE
s SATISFIABLE
s SATISFIABLE
s SATISFIABLE
s SATISFIABLE
s SATISFIABLE
s SATISFIABLE
s SATISFIABLE
s SATISFIABLE
s SATISFIABLE
s SATISFIABLE
s SATISFIABLE
s SATISFIABLE
s SATISFIABLE
s SATISFIABLE
s SATISFIABLE
s SATISFIABLE
s SATISFIABLE
s SATISFIABLE
120========================================================================================
s SATISFIABLE
s SATISFIABLE
s SATISFIABLE
s SATISFIABLE
s SATISFIABLE
s SATISFIABLE
s SATISFIABLE
s SATISFIABLE
s SATISFIABLE
s SATISFIABLE
s SATISFIABLE
s SATISFIABLE
s SATISFIABLE
s SATISFIABLE
s SATISFIABLE
s SATISFIABLE
s SATISFIABLE
s SATISFIABLE
s SATISFIABLE
s SATISFIABLE
s SATISFIABLE
s UNSATISFIABLE
s SATISFIABLE
s SATISFIABLE
s SATISFIABLE
s SATISFIABLE
s SATISFIABLE
s SATISFIABLE
s SATISFIABLE
s SATISFIABLE
s SATISFIABLE
s SATISFIABLE
s SATISFIABLE
s SATISFIABLE
s SATISFIABLE
s SATISFIABLE
s SATISFIABLE
s UNSATISFIABLE
s SATISFIABLE
s UNSATISFIABLE
s SATISFIABLE
s SATISFIABLE
s SATISFIABLE
s SATISFIABLE
s UNSATISFIABLE
s SATISFIABLE
s SATISFIABLE
s SATISFIABLE
s SATISFIABLE
s SATISFIABLE
s SATISFIABLE
s UNSATISFIABLE
s SATISFIABLE
s SATISFIABLE
s SATISFIABLE
s SATISFIABLE
s SATISFIABLE
s SATISFIABLE
s SATISFIABLE
s SATISFIABLE
s SATISFIABLE
s SATISFIABLE
s SATISFIABLE
s SATISFIABLE
s SATISFIABLE
s SATISFIABLE
s SATISFIABLE
s UNSATISFIABLE
s SATISFIABLE
s SATISFIABLE
s SATISFIABLE
s SATISFIABLE
s SATISFIABLE
s SATISFIABLE
s SATISFIABLE
s SATISFIABLE
s SATISFIABLE
s SATISFIABLE
s SATISFIABLE
s SATISFIABLE
130========================================================================================
s UNSATISFIABLE
s SATISFIABLE
s SATISFIABLE
s SATISFIABLE
s SATISFIABLE
s SATISFIABLE
s SATISFIABLE
s SATISFIABLE
s UNSATISFIABLE
s SATISFIABLE
s SATISFIABLE
s UNSATISFIABLE
s SATISFIABLE
s SATISFIABLE
s SATISFIABLE
s UNSATISFIABLE
s SATISFIABLE
s SATISFIABLE
s SATISFIABLE
s SATISFIABLE
s SATISFIABLE
s SATISFIABLE
s UNSATISFIABLE
s SATISFIABLE
s SATISFIABLE
s UNSATISFIABLE
s SATISFIABLE
s SATISFIABLE
s SATISFIABLE
s SATISFIABLE
s SATISFIABLE
s SATISFIABLE
s UNSATISFIABLE
s SATISFIABLE
s UNSATISFIABLE
s SATISFIABLE
s SATISFIABLE
s SATISFIABLE
s SATISFIABLE
s SATISFIABLE
s SATISFIABLE
s UNSATISFIABLE
s SATISFIABLE
s SATISFIABLE
s SATISFIABLE
s SATISFIABLE
s UNSATISFIABLE
s SATISFIABLE
s UNSATISFIABLE
s SATISFIABLE
s SATISFIABLE
s SATISFIABLE
s SATISFIABLE
s UNSATISFIABLE
s SATISFIABLE
s SATISFIABLE
s SATISFIABLE
s SATISFIABLE
s UNSATISFIABLE
s SATISFIABLE
s SATISFIABLE
s SATISFIABLE
s SATISFIABLE
s SATISFIABLE
s SATISFIABLE
s SATISFIABLE
s SATISFIABLE
s SATISFIABLE
s SATISFIABLE
s SATISFIABLE
s UNSATISFIABLE
s SATISFIABLE
s SATISFIABLE
s SATISFIABLE
s SATISFIABLE
s UNSATISFIABLE
s SATISFIABLE
s SATISFIABLE
s SATISFIABLE
s SATISFIABLE
140========================================================================================
s SATISFIABLE
s UNSATISFIABLE
s UNSATISFIABLE
s SATISFIABLE
s SATISFIABLE
s SATISFIABLE
s SATISFIABLE
s SATISFIABLE
s SATISFIABLE
s SATISFIABLE
s SATISFIABLE
s SATISFIABLE
s SATISFIABLE
s SATISFIABLE
s UNSATISFIABLE
s SATISFIABLE
s UNSATISFIABLE
s SATISFIABLE
s UNSATISFIABLE
s SATISFIABLE
s SATISFIABLE
s SATISFIABLE
s SATISFIABLE
s SATISFIABLE
s SATISFIABLE
s SATISFIABLE
s UNSATISFIABLE
s UNSATISFIABLE
s SATISFIABLE
s UNSATISFIABLE
s SATISFIABLE
s UNSATISFIABLE
s SATISFIABLE
s UNSATISFIABLE
s UNSATISFIABLE
s SATISFIABLE
s SATISFIABLE
s SATISFIABLE
s UNSATISFIABLE
s SATISFIABLE
s SATISFIABLE
s SATISFIABLE
s UNSATISFIABLE
s SATISFIABLE
s UNSATISFIABLE
s SATISFIABLE
s UNSATISFIABLE
s SATISFIABLE
s SATISFIABLE
s SATISFIABLE
s SATISFIABLE
s SATISFIABLE
s UNSATISFIABLE
s SATISFIABLE
s SATISFIABLE
s UNSATISFIABLE
s SATISFIABLE
s SATISFIABLE
s UNSATISFIABLE
s SATISFIABLE
s UNSATISFIABLE
s UNSATISFIABLE
s SATISFIABLE
s SATISFIABLE
s SATISFIABLE
s UNSATISFIABLE
s SATISFIABLE
s SATISFIABLE
s SATISFIABLE
s SATISFIABLE
s SATISFIABLE
s UNSATISFIABLE
s SATISFIABLE
s SATISFIABLE
s SATISFIABLE
s SATISFIABLE
s SATISFIABLE
s UNSATISFIABLE
s SATISFIABLE
s SATISFIABLE
150========================================================================================
s UNSATISFIABLE
s SATISFIABLE
s SATISFIABLE
s UNSATISFIABLE
s SATISFIABLE
s UNSATISFIABLE
s UNSATISFIABLE
s UNSATISFIABLE
s SATISFIABLE
s SATISFIABLE
s SATISFIABLE
s SATISFIABLE
s SATISFIABLE
s UNSATISFIABLE
s SATISFIABLE
s UNSATISFIABLE
s SATISFIABLE
s UNSATISFIABLE
s SATISFIABLE
s SATISFIABLE
s SATISFIABLE
s SATISFIABLE
s UNSATISFIABLE
s UNSATISFIABLE
s SATISFIABLE
s UNSATISFIABLE
s SATISFIABLE
s UNSATISFIABLE
s UNSATISFIABLE
s SATISFIABLE
s SATISFIABLE
s UNSATISFIABLE
s SATISFIABLE
s SATISFIABLE
s SATISFIABLE
s UNSATISFIABLE
s UNSATISFIABLE
s UNSATISFIABLE
s UNSATISFIABLE
s UNSATISFIABLE
s SATISFIABLE
s SATISFIABLE
s SATISFIABLE
s SATISFIABLE
s SATISFIABLE
s SATISFIABLE
s SATISFIABLE
s SATISFIABLE
s SATISFIABLE
s UNSATISFIABLE
s SATISFIABLE
s SATISFIABLE
s UNSATISFIABLE
s SATISFIABLE
s UNSATISFIABLE
s UNSATISFIABLE
s SATISFIABLE
s UNSATISFIABLE
s SATISFIABLE
s SATISFIABLE
s SATISFIABLE
s SATISFIABLE
s SATISFIABLE
s UNSATISFIABLE
s SATISFIABLE
s UNSATISFIABLE
s SATISFIABLE
s UNSATISFIABLE
s SATISFIABLE
s UNSATISFIABLE
s UNSATISFIABLE
s SATISFIABLE
s UNSATISFIABLE
s SATISFIABLE
s SATISFIABLE
s SATISFIABLE
s SATISFIABLE
s SATISFIABLE
s SATISFIABLE
s UNSATISFIABLE
160========================================================================================
s UNSATISFIABLE
s SATISFIABLE
s SATISFIABLE
s SATISFIABLE
s UNSATISFIABLE
s UNSATISFIABLE
s UNSATISFIABLE
s UNSATISFIABLE
s UNSATISFIABLE
s UNSATISFIABLE
s UNSATISFIABLE
s UNSATISFIABLE
s UNSATISFIABLE
s UNSATISFIABLE
s UNSATISFIABLE
s SATISFIABLE
s UNSATISFIABLE
s UNSATISFIABLE
s UNSATISFIABLE
s SATISFIABLE
s SATISFIABLE
s SATISFIABLE
s UNSATISFIABLE
s UNSATISFIABLE
s UNSATISFIABLE
s UNSATISFIABLE
s UNSATISFIABLE
s SATISFIABLE
s SATISFIABLE
s UNSATISFIABLE
s UNSATISFIABLE
s UNSATISFIABLE
s UNSATISFIABLE
s UNSATISFIABLE
s UNSATISFIABLE
s SATISFIABLE
s UNSATISFIABLE
s UNSATISFIABLE
s SATISFIABLE
s UNSATISFIABLE
s UNSATISFIABLE
s UNSATISFIABLE
s UNSATISFIABLE
s UNSATISFIABLE
s UNSATISFIABLE
s UNSATISFIABLE
s UNSATISFIABLE
s UNSATISFIABLE
s UNSATISFIABLE
s UNSATISFIABLE
s UNSATISFIABLE
s SATISFIABLE
s SATISFIABLE
s UNSATISFIABLE
s UNSATISFIABLE
s SATISFIABLE
s SATISFIABLE
s SATISFIABLE
s UNSATISFIABLE
s UNSATISFIABLE
s UNSATISFIABLE
s UNSATISFIABLE
s UNSATISFIABLE
s UNSATISFIABLE
s SATISFIABLE
s UNSATISFIABLE
s UNSATISFIABLE
s UNSATISFIABLE
s UNSATISFIABLE
s UNSATISFIABLE
s UNSATISFIABLE
s SATISFIABLE
s UNSATISFIABLE
s UNSATISFIABLE
s UNSATISFIABLE
s UNSATISFIABLE
s UNSATISFIABLE
s UNSATISFIABLE
s UNSATISFIABLE
s UNSATISFIABLE
170========================================================================================
s UNSATISFIABLE
s UNSATISFIABLE
s UNSATISFIABLE
s UNSATISFIABLE
s SATISFIABLE
s UNSATISFIABLE
s UNSATISFIABLE
s SATISFIABLE
s SATISFIABLE
s SATISFIABLE
s UNSATISFIABLE
s UNSATISFIABLE
s UNSATISFIABLE
s UNSATISFIABLE
s UNSATISFIABLE
s UNSATISFIABLE
s UNSATISFIABLE
s UNSATISFIABLE
s SATISFIABLE
s UNSATISFIABLE
s UNSATISFIABLE
s UNSATISFIABLE
s SATISFIABLE
s UNSATISFIABLE
s UNSATISFIABLE
s UNSATISFIABLE
s UNSATISFIABLE
s UNSATISFIABLE
s UNSATISFIABLE
s UNSATISFIABLE
s UNSATISFIABLE
s UNSATISFIABLE
s SATISFIABLE
s UNSATISFIABLE
s UNSATISFIABLE
s SATISFIABLE
s UNSATISFIABLE
s UNSATISFIABLE
s UNSATISFIABLE
s UNSATISFIABLE
s UNSATISFIABLE
s UNSATISFIABLE
s SATISFIABLE
s SATISFIABLE
s UNSATISFIABLE
s UNSATISFIABLE
s SATISFIABLE
s UNSATISFIABLE
s UNSATISFIABLE
s UNSATISFIABLE
s UNSATISFIABLE
s UNSATISFIABLE
s UNSATISFIABLE
s UNSATISFIABLE
s UNSATISFIABLE
s SATISFIABLE
s UNSATISFIABLE
s UNSATISFIABLE
s SATISFIABLE
s SATISFIABLE
s UNSATISFIABLE
s UNSATISFIABLE
s UNSATISFIABLE
s UNSATISFIABLE
s UNSATISFIABLE
s UNSATISFIABLE
s UNSATISFIABLE
s UNSATISFIABLE
s UNSATISFIABLE
s UNSATISFIABLE
s SATISFIABLE
s UNSATISFIABLE
s SATISFIABLE
s UNSATISFIABLE
s UNSATISFIABLE
s UNSATISFIABLE
s UNSATISFIABLE
s UNSATISFIABLE
s UNSATISFIABLE
s UNSATISFIABLE
180========================================================================================
s UNSATISFIABLE
s UNSATISFIABLE
s UNSATISFIABLE
s UNSATISFIABLE
s UNSATISFIABLE
s SATISFIABLE
s UNSATISFIABLE
s UNSATISFIABLE
s UNSATISFIABLE
s SATISFIABLE
s UNSATISFIABLE
s UNSATISFIABLE
s SATISFIABLE
s UNSATISFIABLE
s UNSATISFIABLE
s UNSATISFIABLE
s UNSATISFIABLE
s UNSATISFIABLE
s UNSATISFIABLE
s UNSATISFIABLE
s UNSATISFIABLE
s UNSATISFIABLE
s UNSATISFIABLE
s UNSATISFIABLE
s UNSATISFIABLE
s UNSATISFIABLE
s UNSATISFIABLE
s UNSATISFIABLE
s UNSATISFIABLE
s UNSATISFIABLE
s UNSATISFIABLE
s UNSATISFIABLE
s UNSATISFIABLE
s UNSATISFIABLE
s UNSATISFIABLE
s UNSATISFIABLE
s UNSATISFIABLE
s SATISFIABLE
s UNSATISFIABLE
s UNSATISFIABLE
s SATISFIABLE
s UNSATISFIABLE
s UNSATISFIABLE
s UNSATISFIABLE
s UNSATISFIABLE
s UNSATISFIABLE
s UNSATISFIABLE
s SATISFIABLE
s UNSATISFIABLE
s UNSATISFIABLE
s UNSATISFIABLE
s UNSATISFIABLE
s UNSATISFIABLE
s UNSATISFIABLE
s UNSATISFIABLE
s UNSATISFIABLE
s UNSATISFIABLE
s UNSATISFIABLE
s UNSATISFIABLE
s UNSATISFIABLE
s UNSATISFIABLE
s UNSATISFIABLE
s UNSATISFIABLE
s UNSATISFIABLE
s UNSATISFIABLE
s UNSATISFIABLE
s UNSATISFIABLE
s UNSATISFIABLE
s UNSATISFIABLE
s UNSATISFIABLE
s UNSATISFIABLE
s UNSATISFIABLE
s UNSATISFIABLE
s UNSATISFIABLE
s UNSATISFIABLE
s UNSATISFIABLE
s UNSATISFIABLE
s UNSATISFIABLE
s UNSATISFIABLE
s UNSATISFIABLE
190========================================================================================
s UNSATISFIABLE
s UNSATISFIABLE
s UNSATISFIABLE
s UNSATISFIABLE
s UNSATISFIABLE
s UNSATISFIABLE
s UNSATISFIABLE
s SATISFIABLE
s UNSATISFIABLE
s UNSATISFIABLE
s UNSATISFIABLE
s SATISFIABLE
s UNSATISFIABLE
s UNSATISFIABLE
s UNSATISFIABLE
s UNSATISFIABLE
s UNSATISFIABLE
s SATISFIABLE
s UNSATISFIABLE
s UNSATISFIABLE
s UNSATISFIABLE
s UNSATISFIABLE
s UNSATISFIABLE
s UNSATISFIABLE
s UNSATISFIABLE
s UNSATISFIABLE
s UNSATISFIABLE
s UNSATISFIABLE
s UNSATISFIABLE
s UNSATISFIABLE
s UNSATISFIABLE
s SATISFIABLE
s UNSATISFIABLE
s UNSATISFIABLE
s UNSATISFIABLE
s UNSATISFIABLE
s UNSATISFIABLE
s UNSATISFIABLE
s UNSATISFIABLE
s UNSATISFIABLE
s UNSATISFIABLE
s UNSATISFIABLE
s UNSATISFIABLE
s UNSATISFIABLE
s UNSATISFIABLE
s UNSATISFIABLE
s UNSATISFIABLE
s UNSATISFIABLE
s UNSATISFIABLE
s UNSATISFIABLE
s UNSATISFIABLE
s UNSATISFIABLE
s UNSATISFIABLE
s UNSATISFIABLE
s UNSATISFIABLE
s UNSATISFIABLE
s UNSATISFIABLE
s UNSATISFIABLE
s UNSATISFIABLE
s UNSATISFIABLE
s UNSATISFIABLE
s UNSATISFIABLE
s UNSATISFIABLE
s UNSATISFIABLE
s UNSATISFIABLE
s UNSATISFIABLE
s UNSATISFIABLE
s UNSATISFIABLE
s UNSATISFIABLE
s UNSATISFIABLE
s UNSATISFIABLE
s SATISFIABLE
s UNSATISFIABLE
s UNSATISFIABLE
s UNSATISFIABLE
s UNSATISFIABLE
s UNSATISFIABLE
s UNSATISFIABLE
s UNSATISFIABLE
s UNSATISFIABLE
200========================================================================================
s UNSATISFIABLE
s UNSATISFIABLE
s UNSATISFIABLE
s SATISFIABLE
s UNSATISFIABLE
s UNSATISFIABLE
s UNSATISFIABLE
s UNSATISFIABLE
s UNSATISFIABLE
s UNSATISFIABLE
s UNSATISFIABLE
s UNSATISFIABLE
s UNSATISFIABLE
s UNSATISFIABLE
s UNSATISFIABLE
s UNSATISFIABLE
s UNSATISFIABLE
s UNSATISFIABLE
s UNSATISFIABLE
s UNSATISFIABLE
s UNSATISFIABLE
s UNSATISFIABLE
s UNSATISFIABLE
s UNSATISFIABLE
s UNSATISFIABLE
s SATISFIABLE
s UNSATISFIABLE
s SATISFIABLE
s UNSATISFIABLE
s UNSATISFIABLE
s UNSATISFIABLE
s UNSATISFIABLE
s UNSATISFIABLE
s UNSATISFIABLE
s UNSATISFIABLE
s UNSATISFIABLE
s UNSATISFIABLE
s UNSATISFIABLE
s UNSATISFIABLE
s UNSATISFIABLE
s UNSATISFIABLE
s UNSATISFIABLE
s UNSATISFIABLE
s UNSATISFIABLE
s UNSATISFIABLE
s UNSATISFIABLE
s UNSATISFIABLE
s UNSATISFIABLE
s UNSATISFIABLE
s UNSATISFIABLE
s UNSATISFIABLE
s UNSATISFIABLE
s UNSATISFIABLE
s UNSATISFIABLE
s UNSATISFIABLE
s UNSATISFIABLE
s UNSATISFIABLE
s UNSATISFIABLE
s UNSATISFIABLE
s UNSATISFIABLE
s UNSATISFIABLE
s UNSATISFIABLE
s UNSATISFIABLE
s UNSATISFIABLE
s UNSATISFIABLE
s UNSATISFIABLE
s UNSATISFIABLE
s UNSATISFIABLE
s UNSATISFIABLE
s SATISFIABLE
s UNSATISFIABLE
s UNSATISFIABLE
s UNSATISFIABLE
s UNSATISFIABLE
s UNSATISFIABLE
s UNSATISFIABLE
s UNSATISFIABLE
s UNSATISFIABLE
s UNSATISFIABLE
s UNSATISFIABLE
210========================================================================================
s UNSATISFIABLE
s UNSATISFIABLE
s UNSATISFIABLE
s UNSATISFIABLE
s UNSATISFIABLE
s UNSATISFIABLE
s UNSATISFIABLE
s UNSATISFIABLE
s UNSATISFIABLE
s UNSATISFIABLE
s UNSATISFIABLE
s UNSATISFIABLE
s UNSATISFIABLE
s UNSATISFIABLE
s UNSATISFIABLE
s UNSATISFIABLE
s UNSATISFIABLE
s UNSATISFIABLE
s UNSATISFIABLE
s UNSATISFIABLE
s SATISFIABLE
s UNSATISFIABLE
s UNSATISFIABLE
s UNSATISFIABLE
s UNSATISFIABLE
s UNSATISFIABLE
s UNSATISFIABLE
s UNSATISFIABLE
s UNSATISFIABLE
s UNSATISFIABLE
s UNSATISFIABLE
s UNSATISFIABLE
s UNSATISFIABLE
s UNSATISFIABLE
s UNSATISFIABLE
s UNSATISFIABLE
s UNSATISFIABLE
s UNSATISFIABLE
s UNSATISFIABLE
s UNSATISFIABLE
s UNSATISFIABLE
s UNSATISFIABLE
s UNSATISFIABLE
s UNSATISFIABLE
s UNSATISFIABLE
s UNSATISFIABLE
s UNSATISFIABLE
s UNSATISFIABLE
s UNSATISFIABLE
s UNSATISFIABLE
s UNSATISFIABLE
s UNSATISFIABLE
s UNSATISFIABLE
s UNSATISFIABLE
s UNSATISFIABLE
s UNSATISFIABLE
s UNSATISFIABLE
s UNSATISFIABLE
s UNSATISFIABLE
s UNSATISFIABLE
s UNSATISFIABLE
s UNSATISFIABLE
s UNSATISFIABLE
s UNSATISFIABLE
s UNSATISFIABLE
s UNSATISFIABLE
s UNSATISFIABLE
s UNSATISFIABLE
s UNSATISFIABLE
s UNSATISFIABLE
s UNSATISFIABLE
s UNSATISFIABLE
s UNSATISFIABLE
s UNSATISFIABLE
s UNSATISFIABLE
s UNSATISFIABLE
s UNSATISFIABLE
s UNSATISFIABLE
s UNSATISFIABLE
s UNSATISFIABLE
220========================================================================================
s UNSATISFIABLE
s UNSATISFIABLE
s UNSATISFIABLE
s UNSATISFIABLE
s UNSATISFIABLE
s UNSATISFIABLE
s UNSATISFIABLE
s UNSATISFIABLE
s UNSATISFIABLE
s UNSATISFIABLE
s UNSATISFIABLE
s UNSATISFIABLE
s UNSATISFIABLE
s UNSATISFIABLE
s SATISFIABLE
s UNSATISFIABLE
s UNSATISFIABLE
s UNSATISFIABLE
s UNSATISFIABLE
s UNSATISFIABLE
s UNSATISFIABLE
s UNSATISFIABLE
s UNSATISFIABLE
s UNSATISFIABLE
s UNSATISFIABLE
s UNSATISFIABLE
s UNSATISFIABLE
s UNSATISFIABLE
s UNSATISFIABLE
s UNSATISFIABLE
s UNSATISFIABLE
s UNSATISFIABLE
s UNSATISFIABLE
s UNSATISFIABLE
s UNSATISFIABLE
s UNSATISFIABLE
s UNSATISFIABLE
s UNSATISFIABLE
s UNSATISFIABLE
s UNSATISFIABLE
s UNSATISFIABLE
s UNSATISFIABLE
s UNSATISFIABLE
s UNSATISFIABLE
s UNSATISFIABLE
s UNSATISFIABLE
s UNSATISFIABLE
s UNSATISFIABLE
s UNSATISFIABLE
s UNSATISFIABLE
s UNSATISFIABLE
s UNSATISFIABLE
s UNSATISFIABLE
s UNSATISFIABLE
s UNSATISFIABLE
s UNSATISFIABLE
s UNSATISFIABLE
s UNSATISFIABLE
s UNSATISFIABLE
s UNSATISFIABLE
s UNSATISFIABLE
s UNSATISFIABLE
s UNSATISFIABLE
s UNSATISFIABLE
s UNSATISFIABLE
s UNSATISFIABLE
s SATISFIABLE
s UNSATISFIABLE
s UNSATISFIABLE
s UNSATISFIABLE
s UNSATISFIABLE
s UNSATISFIABLE
s UNSATISFIABLE
s UNSATISFIABLE
s UNSATISFIABLE
s UNSATISFIABLE
s UNSATISFIABLE
s UNSATISFIABLE
s UNSATISFIABLE
s UNSATISFIABLE
230========================================================================================
s UNSATISFIABLE
s UNSATISFIABLE
s UNSATISFIABLE
s UNSATISFIABLE
s UNSATISFIABLE
s UNSATISFIABLE
s UNSATISFIABLE
s UNSATISFIABLE
s UNSATISFIABLE
s UNSATISFIABLE
s UNSATISFIABLE
s UNSATISFIABLE
s UNSATISFIABLE
s UNSATISFIABLE
s UNSATISFIABLE
s UNSATISFIABLE
s UNSATISFIABLE
s UNSATISFIABLE
s UNSATISFIABLE
s UNSATISFIABLE
s UNSATISFIABLE
s UNSATISFIABLE
s UNSATISFIABLE
s UNSATISFIABLE
s UNSATISFIABLE
s UNSATISFIABLE
s UNSATISFIABLE
s UNSATISFIABLE
s UNSATISFIABLE
s UNSATISFIABLE
s UNSATISFIABLE
s UNSATISFIABLE
s UNSATISFIABLE
s UNSATISFIABLE
s UNSATISFIABLE
s UNSATISFIABLE
s UNSATISFIABLE
s UNSATISFIABLE
s UNSATISFIABLE
s UNSATISFIABLE
s UNSATISFIABLE
s UNSATISFIABLE
s UNSATISFIABLE
s UNSATISFIABLE
s UNSATISFIABLE
s UNSATISFIABLE
s UNSATISFIABLE
s UNSATISFIABLE
s UNSATISFIABLE
s UNSATISFIABLE
s UNSATISFIABLE
s UNSATISFIABLE
s UNSATISFIABLE
s UNSATISFIABLE
s UNSATISFIABLE
s UNSATISFIABLE
s UNSATISFIABLE
s UNSATISFIABLE
s UNSATISFIABLE
s UNSATISFIABLE
s UNSATISFIABLE
s UNSATISFIABLE
s UNSATISFIABLE
s UNSATISFIABLE
s UNSATISFIABLE
s UNSATISFIABLE
s UNSATISFIABLE
s UNSATISFIABLE
s UNSATISFIABLE
s UNSATISFIABLE
s UNSATISFIABLE
s UNSATISFIABLE
s UNSATISFIABLE
s UNSATISFIABLE
s UNSATISFIABLE
s UNSATISFIABLE
s UNSATISFIABLE
s UNSATISFIABLE
s UNSATISFIABLE
s UNSATISFIABLE
240========================================================================================
s UNSATISFIABLE
s UNSATISFIABLE
s UNSATISFIABLE
s UNSATISFIABLE
s UNSATISFIABLE
s UNSATISFIABLE
s UNSATISFIABLE
s UNSATISFIABLE
s UNSATISFIABLE
s UNSATISFIABLE
s UNSATISFIABLE
s UNSATISFIABLE
s UNSATISFIABLE
s UNSATISFIABLE
s UNSATISFIABLE
s UNSATISFIABLE
s UNSATISFIABLE
s UNSATISFIABLE
s UNSATISFIABLE
s UNSATISFIABLE
s UNSATISFIABLE
s UNSATISFIABLE
s UNSATISFIABLE
s UNSATISFIABLE
s UNSATISFIABLE
s UNSATISFIABLE
s UNSATISFIABLE
s UNSATISFIABLE
s UNSATISFIABLE
s UNSATISFIABLE
s UNSATISFIABLE
s UNSATISFIABLE
s UNSATISFIABLE
s UNSATISFIABLE
s UNSATISFIABLE
s UNSATISFIABLE
s UNSATISFIABLE
s UNSATISFIABLE
s UNSATISFIABLE
s UNSATISFIABLE
s UNSATISFIABLE
s UNSATISFIABLE
s UNSATISFIABLE
s UNSATISFIABLE
s UNSATISFIABLE
s UNSATISFIABLE
s UNSATISFIABLE
s UNSATISFIABLE
s UNSATISFIABLE
s UNSATISFIABLE
s UNSATISFIABLE
s UNSATISFIABLE
s UNSATISFIABLE
s UNSATISFIABLE
s UNSATISFIABLE
s UNSATISFIABLE
s UNSATISFIABLE
s UNSATISFIABLE
s UNSATISFIABLE
s UNSATISFIABLE
s UNSATISFIABLE
s UNSATISFIABLE
s UNSATISFIABLE
s UNSATISFIABLE
s UNSATISFIABLE
s UNSATISFIABLE
s UNSATISFIABLE
s UNSATISFIABLE
s UNSATISFIABLE
s UNSATISFIABLE
s UNSATISFIABLE
s UNSATISFIABLE
s UNSATISFIABLE
s UNSATISFIABLE
s UNSATISFIABLE
s UNSATISFIABLE
s UNSATISFIABLE
s UNSATISFIABLE
s UNSATISFIABLE
s UNSATISFIABLE
